33D32945 STP File, STP Format Version 1.0

SECTION Comment
Name "lin03-10s"
Creator "Bernd Zey"
Problem "Stochastic Steiner Tree Problem"
# Stochastic Steiner tree problem instance, base file: lin03.stp
# weight-scaling off
# parameters:
# distribution=equal
# selectRootRandomly=0
# probabilityTerminal=33
# probabilityNonTerminal=5
# 2nd stage edge-costs in [1.1000c_e, 1.3000c_e]
END

SECTION Graph
Nodes 57
Edges 84
Scenarios 10
Root 4
E 1 55 10
E 1 36 74
E 1 12 70
E 2 56 110
E 2 26 160
E 3 50 66
E 3 55 24
E 3 46 93
E 4 31 31
E 4 19 11
E 5 30 8
E 5 10 56
E 6 49 12
E 6 9 39
E 6 53 50
E 7 16 88
E 7 32 144
E 7 18 48
E 7 28 160
E 8 13 74
E 8 31 6
E 8 56 160
E 9 25 25
E 10 49 42
E 10 31 62
E 11 44 88
E 11 21 26
E 11 17 2
E 12 57 2
E 12 15 42
E 13 18 44
E 13 46 69
E 13 38 160
E 14 16 160
E 14 28 88
E 15 47 2
E 15 30 18
E 16 37 144
E 17 20 88
E 17 51 26
E 17 52 146
E 19 49 62
E 19 26 62
E 20 44 2
E 20 29 146
E 21 42 76
E 21 51 2
E 22 45 102
E 22 48 60
E 23 52 26
E 23 51 146
E 23 55 66
E 23 50 24
E 24 30 2
E 24 47 18
E 24 25 52
E 25 33 18
E 26 53 62
E 27 36 72
E 27 54 72
E 27 57 74
E 28 38 92
E 29 52 88
E 29 43 24
E 32 37 88
E 32 40 18
E 33 35 21
E 33 41 50
E 34 51 31
E 34 39 45
E 35 47 31
E 36 39 72
E 37 43 18
E 38 56 74
E 39 42 2
E 39 54 72
E 40 43 88
E 40 52 24
E 40 50 26
E 41 48 130
E 41 53 82
E 42 45 72
E 45 54 2
E 47 57 42
END

SECTION StochasticProbabilities
SP 0.076100 0.065300 0.13050 0.054400 0.15220 0.13040 0.097800 0.065200 0.10860 0.11950
END

SECTION StochasticWeights
SE 11 11 11 12 11 11 12 13 11 13 
SE 90 95 89 92 96 82 95 88 93 82 
SE 89 83 79 80 87 91 78 82 80 79 
SE 130 142 131 140 132 132 131 124 135 136 
SE 186 196 197 186 193 200 185 179 179 193 
SE 80 84 80 84 78 73 83 73 73 82 
SE 27 28 30 31 30 29 27 31 27 31 
SE 120 108 104 110 109 115 110 112 120 106 
SE 40 35 38 38 37 40 39 35 36 40 
SE 14 13 13 14 13 13 14 14 13 14 
SE 9 9 10 10 9 10 9 10 10 10 
SE 71 69 65 62 66 70 66 62 69 66 
SE 15 14 14 15 14 14 14 14 14 14 
SE 49 48 49 50 49 47 43 44 45 50 
SE 62 62 58 61 61 61 59 59 60 65 
SE 110 111 100 108 98 111 104 97 100 108 
SE 175 181 170 166 182 184 167 179 172 161 
SE 61 58 62 61 58 54 60 55 57 53 
SE 186 184 185 187 185 202 199 201 205 176 
SE 86 96 87 85 89 95 83 96 94 88 
SE 7 7 7 7 7 7 7 7 7 7 
SE 190 186 188 206 199 181 203 199 177 190 
SE 32 29 31 28 31 30 28 28 32 30 
SE 51 49 50 47 54 47 47 51 49 49 
SE 80 70 78 72 72 69 73 70 76 76 
SE 102 108 104 103 112 106 103 108 107 110 
SE 29 32 31 30 30 29 29 30 30 32 
SE 3 3 3 3 3 3 3 3 3 3 
SE 3 3 3 3 3 3 3 3 3 3 
SE 47 47 52 48 49 50 52 48 51 47 
SE 55 56 51 49 50 52 53 51 51 49 
SE 83 79 88 78 88 83 84 85 86 85 
SE 199 192 180 187 181 200 197 179 190 177 
SE 183 196 181 206 201 185 184 182 179 208 
SE 106 108 113 112 114 105 113 97 99 110 
SE 3 3 3 3 3 3 3 3 3 3 
SE 23 22 22 23 23 21 20 23 21 20 
SE 173 176 170 174 180 177 174 170 187 165 
SE 103 114 105 99 113 114 109 100 109 99 
SE 31 33 32 31 30 31 31 33 29 30 
SE 174 189 178 185 185 164 163 186 171 166 
SE 79 69 78 69 77 69 72 73 77 71 
SE 70 74 79 69 69 77 73 71 72 72 
SE 3 3 3 3 3 3 3 3 3 3 
SE 167 174 181 179 187 176 184 166 163 188 
SE 91 90 93 86 86 92 84 95 94 87 
SE 3 3 3 3 3 3 3 3 3 3 
SE 115 114 119 129 130 127 119 130 118 124 
SE 75 76 66 70 76 69 74 71 68 69 
SE 31 32 32 30 31 30 29 32 30 29 
SE 168 167 184 182 171 184 174 173 181 181 
SE 77 79 80 85 84 78 75 85 78 73 
SE 28 29 28 30 29 31 29 27 30 27 
SE 3 3 3 3 3 3 3 3 3 3 
SE 21 21 23 21 20 22 22 21 20 20 
SE 63 60 67 63 66 63 60 65 67 64 
SE 22 20 20 22 20 22 20 20 20 22 
SE 76 76 74 72 77 78 79 77 73 71 
SE 88 90 82 80 93 85 90 89 89 80 
SE 89 93 80 91 92 80 80 92 82 81 
SE 87 89 94 85 83 86 83 83 88 94 
SE 115 102 108 110 108 103 109 104 104 116 
SE 111 112 114 109 108 114 112 108 107 104 
SE 30 31 27 27 31 27 27 30 27 27 
SE 110 99 97 108 107 113 99 103 99 99 
SE 20 22 22 20 20 20 21 20 20 21 
SE 24 24 27 27 24 26 26 27 24 24 
SE 63 59 56 64 58 56 63 60 65 57 
SE 37 37 35 39 35 39 39 35 37 36 
SE 52 50 50 52 56 56 57 58 50 53 
SE 35 35 35 36 35 35 39 36 36 37 
SE 84 80 80 82 88 88 92 80 82 82 
SE 23 23 20 20 23 21 21 20 21 20 
SE 82 82 86 85 86 93 93 89 89 92 
SE 3 3 3 3 3 3 3 3 3 3 
SE 85 80 87 87 85 82 82 91 84 87 
SE 98 110 106 97 105 102 109 104 104 100 
SE 30 29 30 27 28 31 27 27 29 27 
SE 29 33 29 32 32 29 30 31 29 29 
SE 153 159 168 145 169 150 160 145 164 161 
SE 98 91 91 101 98 98 96 91 96 103 
SE 80 92 92 91 86 87 92 86 84 80 
SE 3 3 3 3 3 3 3 3 3 3 
SE 49 47 49 51 53 52 49 50 52 52 
END

SECTION StochasticTerminals
ST 1 0 0 0 0 0 0 0 0 0 0 
ST 2 0 0 0 0 0 0 0 0 0 0 
ST 3 0 0 0 0 0 0 0 0 0 0 
ST 4 1 1 1 1 1 1 1 1 1 1 
ST 5 0 0 0 0 1 0 0 1 1 0 
ST 6 0 0 0 0 0 1 0 1 0 1 
ST 7 0 0 0 0 0 0 0 0 0 0 
ST 8 0 0 0 0 0 0 1 0 0 0 
ST 9 0 0 1 1 0 0 1 1 1 0 
ST 10 0 0 0 0 0 0 0 0 0 0 
ST 11 1 0 0 0 0 1 0 0 0 0 
ST 12 0 0 0 0 0 0 0 0 0 0 
ST 13 0 0 0 0 0 0 0 0 0 0 
ST 14 0 0 0 0 0 0 0 0 0 0 
ST 15 0 0 0 0 0 0 0 0 0 0 
ST 16 0 0 0 0 0 0 0 0 0 0 
ST 17 0 0 0 0 0 1 0 0 0 0 
ST 18 0 1 1 0 1 0 0 1 0 0 
ST 19 0 0 0 0 0 0 0 0 0 0 
ST 20 0 0 0 0 1 0 1 0 0 1 
ST 21 0 0 0 0 1 0 0 0 0 0 
ST 22 0 0 0 0 0 0 1 0 0 0 
ST 23 0 0 0 1 0 0 0 0 0 0 
ST 24 0 0 0 0 0 0 0 0 0 0 
ST 25 0 0 0 0 0 0 0 0 0 0 
ST 26 0 0 0 0 0 0 0 0 0 0 
ST 27 0 1 0 0 0 0 1 0 0 0 
ST 28 0 0 1 0 1 0 0 0 0 1 
ST 29 0 0 1 0 0 0 0 0 0 0 
ST 30 1 0 0 0 0 0 0 0 0 0 
ST 31 0 0 0 0 0 0 0 0 0 0 
ST 32 0 0 0 0 0 0 0 0 0 0 
ST 33 0 0 0 0 0 0 0 0 0 0 
ST 34 0 0 0 0 0 0 1 1 0 1 
ST 35 1 0 0 0 0 1 0 0 1 0 
ST 36 0 0 0 0 0 0 0 0 0 0 
ST 37 0 0 0 0 0 0 0 0 0 0 
ST 38 1 0 1 0 0 0 0 0 0 0 
ST 39 0 0 0 0 0 0 0 0 0 0 
ST 40 0 0 1 0 0 0 0 0 0 0 
ST 41 0 0 0 0 0 0 0 0 0 0 
ST 42 0 0 0 0 0 0 0 0 0 0 
ST 43 0 0 1 0 0 1 0 0 0 0 
ST 44 0 0 0 0 0 0 0 0 0 0 
ST 45 0 0 0 0 0 1 0 0 0 0 
ST 46 1 0 0 1 1 1 0 0 0 1 
ST 47 0 0 0 0 0 0 0 0 0 0 
ST 48 0 1 0 1 1 0 0 0 0 1 
ST 49 0 0 0 0 0 0 0 1 0 0 
ST 50 0 0 0 1 0 0 0 0 0 0 
ST 51 0 0 0 0 0 0 0 0 0 0 
ST 52 0 0 0 0 0 0 0 0 0 0 
ST 53 0 0 0 0 0 0 0 0 0 0 
ST 54 1 0 0 0 0 0 0 0 0 1 
ST 55 1 0 0 0 0 0 0 0 0 1 
ST 56 0 0 0 0 0 0 0 0 0 0 
ST 57 0 0 0 0 0 0 0 0 0 0 
END


SECTION Coordinates
DD 1 346 174
DD 2 0 0
DD 3 322 184
DD 4 160 73
DD 5 278 104
DD 6 222 50
DD 7 160 276
DD 8 160 110
DD 9 261 50
DD 10 222 104
DD 11 494 276
DD 12 346 104
DD 13 160 184
DD 14 0 364
DD 15 304 104
DD 16 160 364
DD 17 492 276
DD 18 160 228
DD 19 160 62
DD 20 492 364
DD 21 494 250
DD 22 494 0
DD 23 346 250
DD 24 286 102
DD 25 286 50
DD 26 160 0
DD 27 420 102
DD 28 0 276
DD 29 346 364
DD 30 286 104
DD 31 160 104
DD 32 304 276
DD 33 304 50
DD 34 492 219
DD 35 304 71
DD 36 420 174
DD 37 304 364
DD 38 0 184
DD 39 492 174
DD 40 322 276
DD 41 304 0
DD 42 494 174
DD 43 322 364
DD 44 494 364
DD 45 494 102
DD 46 229 184
DD 47 304 102
DD 48 434 0
DD 49 222 62
DD 50 322 250
DD 51 492 250
DD 52 346 276
DD 53 222 0
DD 54 492 102
DD 55 346 184
DD 56 0 110
DD 57 346 102
END

EOF
